106359
49,34,47,60,81,43,57,3,12,23,55,25,42,2,38,30,35,28,79,6,61,15,69,78,41,52,39,63,50,4,53,83,8,59,68,44,22,5,19,48,24,31,65,18,37,13,64,1,10,29,73,21,32,40,82,75,11,16,33,27,7,51,72,56,17,74,58,77,9,20,26,36,66,71,54,46,45,80,62,70,14,76,67